; TODO try replacing this with int
(declare-datatype nat ((zero) (s (s_0 nat))))
(declare-datatype tree (par (a) ((Leaf) (Node (Node_0 (tree a)) (Node_1 a) (Node_2 (tree a))))))
(declare-datatype pair (par (a b) ((Pair (Pair_0 a) (Pair_1 b)))))
(define-sort ptree (a b) (tree (pair a b)))
(declare-const LeafP (par (a b) (ptree a b)))
(assert (par (a b) (= (LeafP a b) (Leaf (pair a b)))))
(declare-fun NodeP (par (a b) ((ptree a b) a b (ptree a b)) (ptree a b)))
(assert (par (a b) (forall ((l (ptree a b)) (x a) (y b) (r (ptree a b))) (= (NodeP a b l x y r) (Node (pair a b) l (Pair a b x y) r)))))
(declare-datatype color ((Red) (Black)))
(define-sort rbt (a) (ptree a color))
(declare-fun R (par (a) ((rbt a) a (rbt a)) (rbt a)))
(assert (par (a) (forall ((l (rbt a)) (x a) (r (rbt a))) (= (R a l x r) (NodeP a color l x Red r)))))
(declare-fun B (par (a) ((rbt a) a (rbt a)) (rbt a)))
(assert (par (a) (forall ((l (rbt a)) (x a) (r (rbt a))) (= (B a l x r) (NodeP a color l x Black r)))))
(declare-fun color_of (par (a) ((rbt a)) color))
(assert (par (a) (= (color_of a (LeafP a color)) Black)))
(assert (par (a) (forall ((l (rbt a)) (x a) (c color) (r (rbt a))) (= (color_of a (NodeP a color l x c r)) c))))
(declare-fun paint (par (a) (color (rbt a)) (rbt a)))
(assert (par (a) (forall ((c color)) (= (paint a c (LeafP a color)) (LeafP a color)))))
(assert (par (a) (forall ((c color) (l (rbt a)) (x a) (d color) (r (rbt a))) (= (paint a c (NodeP a color l x d r)) (NodeP a color l x c r)))))
(declare-fun invc (par (a) ((rbt a)) Bool))
(assert (par (a) (invc a (LeafP a color))))
(assert (par (a) (forall ((l (rbt a)) (x a) (c color) (r (rbt a))) (= (invc a (NodeP a color l x c r))
  (and (=> (= c Red) (and (= (color_of a l) Black) (= (color_of a r) Black))) (invc a l) (invc a r))))))
(declare-fun bh (par (a) ((rbt a)) nat))
(assert (par (a) (= (bh a (LeafP a color)) zero)))
(assert (par (a) (forall ((l (rbt a)) (x a) (c color) (r (rbt a))) (= (bh a (NodeP a color l x c r))
  (ite (= c Black) (s (bh a l)) (bh a l))))))
(declare-fun invh (par (a) ((rbt a)) Bool))
(assert (par (a) (invh a (LeafP a color))))
(assert (par (a) (forall ((l (rbt a)) (x a) (c color) (r (rbt a))) (= (invh a (NodeP a color l x c r))
  (and (= (bh a l) (bh a r)) (invh a l) (invh a r))))))
(declare-fun baliR (par (a) ((rbt a) a (rbt a)) (rbt a)))
(assert (par (a) (forall ((t1 (rbt a)) (x a) (t2 (rbt a)) (y a) (t3 (rbt a)) (z a) (t4 (rbt a)) (r (rbt a)))
  (= (baliR a t1 x r) (ite (or (= r (R a t2 y (R a t3 z t4))) (= r (R a (R a t2 y t3) z t4)))
    (R a (B a t1 x t2) y (B a t3 z t4)) (B a t1 x r))))))
(declare-fun invc2 (par (a) ((rbt a)) Bool))
(assert (par (a) (forall ((t (rbt a))) (= (invc2 a t) (invc a (paint a Black t))))))
(declare-fun baldL (par (a) ((rbt a) a (rbt a)) (rbt a)))
(assert (par (a) (forall ((l (rbt a)) (x a) (r (rbt a)) (l1 (rbt a)) (l2 (rbt a)) (r1 (rbt a)) (r2 (rbt a)) (r3 (rbt a)) (r4 (rbt a)) (r5 (rbt a)) (xl a) (xr1 a) (xr2 a) (xr3 a))
  (= (baldL a l x r) (ite (= l (R a l1 xl l2)) (R a (B a l1 xl l2) x r)
    (ite (= r (B a r1 xr1 r2)) (baliR a l x (R a r1 xr1 r2)) (ite (= r (R a (B a r3 xr2 r4) xr3 r5))
      (R a (B a l x r3) xr2 (baliR a r4 xr3 (paint a Red r5))) (R a l x r))))))))
(declare-fun split_minRB (par (a) ((rbt a)) (pair a (rbt a))))
(assert (par (a) (forall ((l (rbt a)) (x a) (c color) (r (rbt a))) (= (split_minRB a (NodeP a color l x c r))
  (ite (= l (LeafP a color)) (Pair a (rbt a) x r) (let ((xl (split_minRB a l)))
    (Pair a (rbt a) (Pair_0 a (rbt a) xl) (ite (= (color_of a l) Black) (baldL a (Pair_1 a (rbt a) xl) x r) (R a (Pair_1 a (rbt a) xl) x r)))))))))

; split_min(t) = (x,t') & t != <> & invh(t) & invc(t) -> invh(t') & (color(t) = Red -> bh(t') = bh(t) & invc(t')) & (color(t) = Black -> bh(t') = bh(t) - 1 & invc2(t'))
(assert-not (par (a) (forall ((t (rbt a)) (x a) (t' (rbt a))) (=> (and (= (split_minRB a t) (Pair a (rbt a) x t')) (distinct t (LeafP a color)) (invh a t) (invc a t))
  (and (invh a t') (=> (= (color_of a t) Red) (and (= (bh a t') (bh a t)) (invc a t'))) (=> (= (color_of a t) Black) (and (= (s (bh a t')) (bh a t)) (invc2 a t'))))))))
